eqy/simple_immedate_assert_statement_pass/strategies/simple_immediate_assert_statement.a/sby/simple_immediate_assert_statement.a/model/design_smt2.smt2
; SMT-LIBv2 description generated by Yosys 0.60 (git sha1 5bafeb77d, clang++ 18.1.8 -fPIC -O3)
; yosys-smt2-module miter
(declare-sort |miter_s| 0)
(declare-fun |miter_is| (|miter_s|) Bool)
; yosys-smt2-wire __po_a__assert.i 32
(define-fun |miter_n __po_a__assert.i| ((state |miter_s|)) (_ BitVec 32) #b00000000000000000000000000000001)
; yosys-smt2-anyseq miter#0 1 $flatten/gate.$auto$setundef.cc:533:execute$30
; yosys-smt2-witness {"offset": 0, "path": ["\\__po_a__assert", "\\in_gate"], "smtname": 0, "smtoffset": 0, "type": "seq", "width": 1}
(declare-fun |miter#0| (|miter_s|) (_ BitVec 1)) ; \__po_a__assert.in_gate
; yosys-smt2-wire __po_a__assert.in_gate 1
(define-fun |miter_n __po_a__assert.in_gate| ((state |miter_s|)) Bool (= ((_ extract 0 0) (|miter#0| state)) #b1))
; yosys-smt2-wire __po_a__assert.in_gold 1
(define-fun |miter_n __po_a__assert.in_gold| ((state |miter_s|)) Bool true)
; yosys-smt2-wire __po_a__assert.okay 1
(define-fun |miter_n __po_a__assert.okay| ((state |miter_s|)) Bool (= ((_ extract 0 0) (|miter#0| state)) #b1))
; yosys-smt2-wire __po_a__gate 1
(define-fun |miter_n __po_a__gate| ((state |miter_s|)) Bool (= ((_ extract 0 0) (|miter#0| state)) #b1))
; yosys-smt2-output __po_a__gate_d 1
; yosys-smt2-wire __po_a__gate_d 1
(define-fun |miter_n __po_a__gate_d| ((state |miter_s|)) Bool (= ((_ extract 0 0) (|miter#0| state)) #b1))
; yosys-smt2-output __po_a__gate_x 1
; yosys-smt2-wire __po_a__gate_x 1
(define-fun |miter_n __po_a__gate_x| ((state |miter_s|)) Bool false)
; yosys-smt2-wire __po_a__gold 1
(define-fun |miter_n __po_a__gold| ((state |miter_s|)) Bool true)
; yosys-smt2-output __po_a__gold_d 1
; yosys-smt2-wire __po_a__gold_d 1
(define-fun |miter_n __po_a__gold_d| ((state |miter_s|)) Bool true)
; yosys-smt2-output __po_a__gold_x 1
; yosys-smt2-wire __po_a__gold_x 1
(define-fun |miter_n __po_a__gold_x| ((state |miter_s|)) Bool false)
; yosys-smt2-wire gate.__po_a 1
(define-fun |miter_n gate.__po_a| ((state |miter_s|)) Bool (= ((_ extract 0 0) (|miter#0| state)) #b1))
; yosys-smt2-wire gate.a 1
(define-fun |miter_n gate.a| ((state |miter_s|)) Bool (= ((_ extract 0 0) (|miter#0| state)) #b1))
; yosys-smt2-wire gold.__po_a 1
(define-fun |miter_n gold.__po_a| ((state |miter_s|)) Bool true)
; yosys-smt2-wire gold.a 1
(define-fun |miter_n gold.a| ((state |miter_s|)) Bool true)
; yosys-smt2-assert 0 _witness_.assert_flatten___po_a__assert__assert________________partitions_simple_immediate_assert_statement_a_sv_54_24 ../../../../../partitions/simple_immediate_assert_statement.a.sv:54.37-54.49
(define-fun |miter_a 0| ((state |miter_s|)) Bool (or (= ((_ extract 0 0) (|miter#0| state)) #b1) (not true))) ; _witness_.assert_flatten___po_a__assert__assert________________partitions_simple_immediate_assert_statement_a_sv_54_24
(define-fun |miter_a| ((state |miter_s|)) Bool 
  (|miter_a 0| state)
)
(define-fun |miter_u| ((state |miter_s|)) Bool true)
(define-fun |miter_i| ((state |miter_s|)) Bool true)
(define-fun |miter_h| ((state |miter_s|)) Bool true)
(define-fun |miter_t| ((state |miter_s|) (next_state |miter_s|)) Bool true) ; end of module miter
; yosys-smt2-topmod miter
; end of yosys output
